3170912
221,2,225,5,182,85,165,198,58,68,220,148,138,98,1,125,214,103,142,109,153,4,217,129,12,174,93,130,26,212,73,227,167,218,195,143,44,215,36,37,163,31,164,194,10,168,204,82,48,157,127,104,132,123,11,14,99,56,202,18,141,51,119,13,50,20,196,131,137,203,224,170,90,150,186,171,146,38,172,52,28,133,178,126,191,57,42,114,207,229,161,192,166,61,128,41,230,177,111,86,45,76,63,226,65,136,46,7,108,94,151,30,185,197,101,9,205,87,35,79,120,156,201,8,71,17,115,19,84,154,211,113,83,32,210,55,155,112,102,62,118,43,184,22,181,49,140,6,33,77,222,24,190,105,216,228,88,21,187,29,209,97,159,70,78,144,72,145,183,89,116,91,34,27,81,75,110,124,193,96,200,139,47,188,206,122,25,158,59,173,95,169,40,60,189,149,117,176,69,162,223,199,152,107,179,134,80,208,23,64,213,39,147,3,16,15,74,135,67,180,121,219,106,175,100,92,54,53,66,160